Read MPS format model from file dat/rmp/DER_96_2048_20.mps
Reading time = 0.21 seconds
: 2144 rows, 7456 columns, 623097 nonzeros
Gurobi Optimizer version 9.0.0 build v9.0.0rc2 (linux64)
Optimize a model with 2144 rows, 7456 columns and 623097 nonzeros
Model fingerprint: 0x259217a3
Coefficient statistics:
  Matrix range     [1e-04, 1e+01]
  Objective range  [8e-01, 1e+03]
  Bounds range     [1e+04, 1e+04]
  RHS range        [1e+00, 1e+00]
Ordering time: 0.00s

Barrier statistics:
 AA' NZ     : 1.893e+05
 Factor NZ  : 2.137e+05 (roughly 6 MBytes of memory)
 Factor Ops : 2.262e+07 (less than 1 second per iteration)
 Threads    : 1

                  Objective                Residual
Iter       Primal          Dual         Primal    Dual     Compl     Time
   0   8.32496003e+08 -1.81327528e+08  1.40e+06 2.45e-02  7.33e+05     0s
   1   3.42829418e+07 -3.01334374e+07  4.94e+04 5.46e-12  2.94e+04     0s
   2   3.13605521e+06 -7.22588973e+06  3.88e+03 3.64e-12  3.02e+03     0s
   3   4.80390581e+04 -2.47453087e+06  2.53e+01 3.64e-12  3.40e+02     0s
   4   1.57388726e+04  3.66174409e+03  3.74e-11 4.98e-12  1.60e+00     0s
   5   1.45811937e+04  1.23020693e+04  2.83e-11 3.64e-12  3.02e-01     0s
   6   1.44804865e+04  1.41092930e+04  2.72e-11 1.82e-12  4.92e-02     0s
   7   1.43887403e+04  1.42539633e+04  5.03e-11 1.82e-12  1.78e-02     0s
   8   1.43521887e+04  1.42886207e+04  3.47e-11 3.64e-12  8.42e-03     1s
   9   1.43408251e+04  1.42992136e+04  8.17e-11 1.82e-12  5.51e-03     1s
  10   1.43273012e+04  1.43068405e+04  2.48e-10 3.64e-12  2.71e-03     1s
  11   1.43185234e+04  1.43128235e+04  2.97e-10 3.64e-12  7.55e-04     1s
  12   1.43167122e+04  1.43137985e+04  2.84e-10 1.82e-12  3.86e-04     1s
  13   1.43163147e+04  1.43142250e+04  2.75e-10 1.82e-12  2.77e-04     1s
  14   1.43153656e+04  1.43149140e+04  3.40e-10 1.82e-12  5.98e-05     1s
  15   1.43152313e+04  1.43149846e+04  7.03e-10 1.82e-12  3.27e-05     1s
  16   1.43150829e+04  1.43150359e+04  1.20e-09 3.64e-12  6.22e-06     1s
  17   1.43150522e+04  1.43150498e+04  3.30e-09 3.64e-12  3.21e-07     1s
  18   1.43150510e+04  1.43150505e+04  3.46e-08 3.64e-12  6.98e-08     1s
  19   1.43150508e+04  1.43150508e+04  1.74e-08 3.64e-12  2.34e-09     1s

Barrier solved model in 19 iterations and 1.06 seconds
Optimal objective 1.43150508e+04

Solve time: 1.060461123
Barrier iterations: 19
